100
0   401   401
1   402   401
2   402   402
3   402   402
4   401   401
5   402   401
6   402   402
7   401   402
8   402   401
9   401   402
10   401   401
11   401   401
12   402   401
13   402   401
14   401   402
15   402   401
16   402   401
17   401   402
18   402   401
19   402   401
20   401   402
21   401   402
22   402   401
23   402   402
24   402   402
25   401   402
26   401   402
27   402   401
28   402   402
29   401   402
30   401   401
31   402   402
32   402   401
33   402   401
34   402   402
35   401   401
36   401   401
37   401   401
38   402   402
39   402   402
40   402   401
41   402   401
42   401   402
43   401   402
44   402   401
45   202   202
46   202   202
47   202   201
48   202   202
49   201   201
50   201   201
51   201   202
52   201   201
53   201   201
54   202   201
55   202   201
56   202   201
57   201   202
58   202   201
59   201   201
60   202   201
61   202   202
62   202   202
63   202   202
64   201   201
65   202   202
66   202   202
67   201   202
68   201   202
69   201   202
70   201   201
71   201   202
72   201   201
73   201   202
74   202   201
75   202   201
76   201   202
77   202   202
78   201   202
79   201   201
80   201   202
81   201   201
82   202   202
83   201   202
84   202   201
85   201   201
86   201   202
87   201   201
88   202   201
89   202   201
90   1   2
91   1   2
92   1   2
93   2   2
94   1   2
95   2   2
96   1   1
97   1   2
98   1   2
99   2   1
800
